<number of tasks>
20

<cycle time>
25

<task times>
1 2
2 4
3 4
4 3
5 3
6 4
7 3
8 3
9 2
10 3
11 3
12 3
13 4
14 3
15 3
16 2
17 1
18 2
19 2
20 1

<precedence relations>
1,2
2,3
3,4
4,5
5,6
6,7
7,8
8,9
9,10
10,11
11,12
12,13
13,14
14,15
15,16
16,17
17,18
18,19
19,20

<states>
1 DRILL
2 MILL
3 WELD
4 CLEAN

<state transitions>
1,1:1
1,2:1
1,3:2
1,4:3
1,5:1
1,6:2
1,7:3
1,8:4
1,9:1
1,10:2
1,11:3
1,12:1
1,13:2
1,14:3
1,15:4
1,16:1
1,17:1
1,18:1
1,19:1
1,20:1
2,1:2
2,2:1
2,3:2
2,4:3
2,5:1
2,6:2
2,7:3
2,8:4
2,9:1
2,10:2
2,11:3
2,12:1
2,13:2
2,14:3
2,15:4
2,16:2
2,17:2
2,18:2
2,19:2
2,20:2
3,1:3
3,2:1
3,3:2
3,4:3
3,5:1
3,6:2
3,7:3
3,8:4
3,9:1
3,10:2
3,11:3
3,12:1
3,13:2
3,14:3
3,15:4
3,16:3
3,17:3
3,18:3
3,19:3
3,20:3
4,1:4
4,2:1
4,3:2
4,4:3
4,5:1
4,6:2
4,7:3
4,8:4
4,9:1
4,10:2
4,11:3
4,12:1
4,13:2
4,14:3
4,15:4
4,16:4
4,17:4
4,18:4
4,19:4
4,20:4

<setup times state forward>
1,3:3
1,4:3
1,6:3
1,7:3
1,8:2
1,10:3
1,11:3
1,13:3
1,14:3
1,15:2
2,2:3
2,4:3
2,5:3
2,7:3
2,8:2
2,9:3
2,11:3
2,12:3
2,14:3
2,15:2
3,2:3
3,3:3
3,5:3
3,6:3
3,8:2
3,9:3
3,10:3
3,12:3
3,13:3
3,15:2
4,2:1
4,3:1
4,4:1
4,5:1
4,6:1
4,7:1
4,9:1
4,10:1
4,11:1
4,12:1
4,13:1
4,14:1

<setup times state cycle>
1,2:2
1,3:2
1,4:2
2,1:2
2,3:2
2,4:2
3,1:2
3,2:2
3,4:2
4,1:1
4,2:1
4,3:1
